6718
989
9609
3042
7108
9097
985
7587
3717
1122
8256
8457
4704
6871
7909
8185
9592
4402
7725
2746
4804
3272
4720
3285
9689
8223
2651
2374
2504
8190
6769
4655
688
3292
4802
2903
7477
458
797
845
9941
8687
1852
8219
1266
3782
6056
5008
3266
573
